
Log started (V12.10.0.0) Mon Apr  5 18:08:35 2021


Problem 'asset.lp' read.
Read time = 0.01 sec. (0.61 ticks)
New value for default parallel thread count: 1
New value for time limit in seconds: 150
Version identifier: 12.10.0.0 | 2019-11-26 | 843d4de
CPXPARAM_Threads                                 1
CPXPARAM_TimeLimit                               150
Found incumbent of value 0.000000 after 0.00 sec. (0.17 ticks)
Tried aggregator 3 times.
MIP Presolve eliminated 1217 rows and 386 columns.
MIP Presolve modified 4737 coefficients.
Aggregator did 1993 substitutions.
Reduced MIP has 2264 rows, 2841 columns, and 12881 nonzeros.
Reduced MIP has 2456 binaries, 315 generals, 0 SOSs, and 0 indicators.
Presolve time = 0.03 sec. (27.11 ticks)
Probing fixed 29 vars, tightened 2 bounds.
Probing time = 0.03 sec. (16.71 ticks)
Cover probing fixed 0 vars, tightened 22 bounds.
Tried aggregator 1 time.
Detecting symmetries...
MIP Presolve eliminated 40 rows and 38 columns.
MIP Presolve modified 1356 coefficients.
Reduced MIP has 2224 rows, 2803 columns, and 12563 nonzeros.
Reduced MIP has 2420 binaries, 313 generals, 0 SOSs, and 0 indicators.
Presolve time = 0.01 sec. (11.30 ticks)
Probing time = 0.00 sec. (3.13 ticks)
Clique table members: 7952.
MIP emphasis: balance optimality and feasibility.
MIP search method: dynamic search.
Parallel mode: none, using 1 thread.
Root relaxation solution time = 0.06 sec. (71.32 ticks)

        Nodes                                         Cuts/
   Node  Left     Objective  IInf  Best Integer    Best Bound    ItCnt     Gap

*     0+    0                            0.0000      366.0000              --- 
      0     0      327.3220   357        0.0000      327.3220     1143     --- 
      0     0      324.5000   357        0.0000     Cuts: 656     2308     --- 
      0     0      322.9546   357        0.0000     Cuts: 656     5477     --- 
      0     0      322.4982   357        0.0000     Cuts: 656     7045     --- 
      0     0      322.2434   357        0.0000     Cuts: 656     7781     --- 
      0     0      321.9975   357        0.0000     Cuts: 656     8992     --- 
Detecting symmetries...
      0     0      321.8492   357        0.0000     Cuts: 656     9603     --- 
      0     0      321.4185   357        0.0000     Cuts: 656    10513     --- 
      0     0      321.3795   357        0.0000     Cuts: 656    11325     --- 
      0     0      321.3560   357        0.0000     Cuts: 656    12067     --- 
      0     0      321.3283   357        0.0000     Cuts: 417    12801     --- 
      0     0      321.3034   357        0.0000     Cuts: 656    13562     --- 
*     0+    0                           12.0000      321.3034              --- 
*     0+    0                          110.0000      321.3034           192.09%
*     0+    0                          116.0000      321.3034           176.99%
*     0+    0                          120.0000      321.3034           167.75%
*     0+    0                          128.0000      321.3034           151.02%
*     0+    0                          132.0000      321.3034           143.41%
      0     0        cutoff            132.0000      321.3034    13562  143.41%
Detecting symmetries...
      0     2      321.3034   415      132.0000      321.1466    13562  143.29%
Elapsed time = 4.98 sec. (6206.49 ticks, tree = 0.01 MB, solutions = 6)
      6     8      319.0281   390      132.0000      320.5346    15690  142.83%
     14    16      313.5075   321      132.0000      320.5346    17940  142.83%
     21    23      308.8182   291      132.0000      320.5346    20047  142.83%
     37    38      304.0000   272      132.0000      320.5346    23262  142.83%
     44    45      304.0000   286      132.0000      320.5346    25711  142.83%
     55    56      310.6298   259      132.0000      320.5346    26508  142.83%
     70    71      311.2694   248      132.0000      320.5346    28627  142.83%
     80    81      308.0000   210      132.0000      320.5346    29806  142.83%
     90    91      307.7221   216      132.0000      320.5346    31237  142.83%
    168   164      295.0488   204      132.0000      320.5346    41234  142.83%
Elapsed time = 7.50 sec. (9877.32 ticks, tree = 2.43 MB, solutions = 6)
    246   223      253.7511   151      132.0000      320.5346    50638  142.83%
*   339   271      integral     0      160.0000      320.5346    52831  100.33%
    360   291      311.3533   284      160.0000      320.4637    55566  100.29%
    451   347      318.2485   377      160.0000      320.4637    64120  100.29%
    509   405      307.4000   329      160.0000      319.1424    72421   99.46%

Performing restart 1

Repeating presolve.
Tried aggregator 2 times.
MIP Presolve eliminated 2 rows and 0 columns.
MIP Presolve modified 2941 coefficients.
Aggregator did 3 substitutions.
Reduced MIP has 2219 rows, 2800 columns, and 10494 nonzeros.
Reduced MIP has 2417 binaries, 313 generals, 0 SOSs, and 0 indicators.
Presolve time = 0.01 sec. (11.60 ticks)
Tried aggregator 1 time.
Reduced MIP has 2219 rows, 2800 columns, and 10494 nonzeros.
Reduced MIP has 2417 binaries, 313 generals, 0 SOSs, and 0 indicators.
Presolve time = 0.01 sec. (7.33 ticks)
Represolve time = 0.08 sec. (54.22 ticks)
    526     0      305.7145   488      160.0000     Cuts: 654    81508   91.07%
    526     0      301.3329   488      160.0000     Cuts: 481    83855   88.33%
    526     0      297.7700   488      160.0000     Cuts: 409    85893   86.11%
    526     0      295.8553   488      160.0000     Cuts: 323    87379   84.91%
    526     0      294.7540   488      160.0000     Cuts: 306    88757   84.22%
    526     0      293.6742   488      160.0000     Cuts: 340    90043   83.55%
    526     0      293.0839   488      160.0000     Cuts: 296    91165   83.18%
    526     0      292.5676   488      160.0000     Cuts: 241    92426   82.85%
    526     0      292.1886   488      160.0000     Cuts: 227    93741   82.62%
    526     0      291.7334   488      160.0000     Cuts: 219    94623   82.33%
    526     0      291.4380   488      160.0000     Cuts: 198    95248   82.15%
    526     0      291.2267   488      160.0000     Cuts: 222    95926   82.02%
    526     0      291.0963   488      160.0000     Cuts: 159    96539   81.94%
    526     0      291.0122   488      160.0000     Cuts: 174    96914   81.88%
    526     0      290.9542   488      160.0000      Cuts: 87    97200   81.85%
    526     0      290.8406   488      160.0000     Cuts: 118    97660   81.78%
    526     0      290.7092   488      160.0000     Cuts: 107    97985   81.69%
    526     0      290.6794   488      160.0000     Cuts: 129    98246   81.67%
    526     0      290.5012   488      160.0000      Cuts: 81    98792   81.56%
    526     0      290.4127   488      160.0000     Cuts: 152    99266   81.51%
    526     0      290.2045   488      160.0000     Cuts: 128   100167   81.38%
*   526+    0                          162.0000      290.2045            79.14%
    526     0      290.1380   488      162.0000     Cuts: 197   100711   79.10%
    526     0      290.0958   488      162.0000     Cuts: 181   101030   79.07%
    526     0      290.0191   488      162.0000     Cuts: 107   101542   79.02%
    526     0      289.9825   488      162.0000     Cuts: 177   101913   79.00%
    526     0      289.9503   488      162.0000     Cuts: 101   102218   78.98%
    526     0      289.9264   488      162.0000     Cuts: 119   102539   78.97%
    526     0      289.9028   488      162.0000     Cuts: 148   102793   78.95%
    526     2      289.9028   562      162.0000      289.9027   102793   78.95%
    528     4      287.2014   496      162.0000      289.9023   106110   78.95%
    530     6      289.5693   513      162.0000      289.6231   107393   78.78%
    532     8      286.9507   470      162.0000      289.6231   111019   78.78%
    535    11      289.4949   508      162.0000      289.6231   113177   78.78%
    538    14      289.0081   487      162.0000      289.6231   114368   78.78%
Elapsed time = 36.28 sec. (47732.41 ticks, tree = 0.10 MB, solutions = 8)
    542    18      288.8569   494      162.0000      289.6231   116795   78.78%
    546    22      288.5938   499      162.0000      289.6231   119384   78.78%
    549    25      288.1668   473      162.0000      289.6231   123009   78.78%
    553    29      287.8714   449      162.0000      289.6231   126639   78.78%
    559    35      287.4027   438      162.0000      289.6231   130977   78.78%
    565    41      287.1305   475      162.0000      289.6231   133851   78.78%
    566    42      283.9974   381      162.0000      289.6231   135750   78.78%
    569    45      287.0124   471      162.0000      289.6231   138853   78.78%
    573    49      286.8685   481      162.0000      289.6231   142193   78.78%
    576    52      281.0536   444      162.0000      289.6231   146574   78.78%
Elapsed time = 43.19 sec. (58381.56 ticks, tree = 0.62 MB, solutions = 8)
    580    56      281.6309   396      162.0000      289.6231   150754   78.78%
    584    60      284.7882   421      162.0000      289.6231   156163   78.78%
    586    62      283.7137   408      162.0000      289.6231   159793   78.78%
    590    66      283.5973   415      162.0000      289.6231   164435   78.78%
    596    72      283.5696   396      162.0000      289.6231   165998   78.78%
    606    82      282.5438   368      162.0000      289.6231   169074   78.78%
    610    84    infeasible            162.0000      289.6231   173642   78.78%
    623    94      253.5669   274      162.0000      289.6231   177006   78.78%
    632   103      250.1639   290      162.0000      289.6231   181863   78.78%
    637   104      284.2706   483      162.0000      289.5647   183859   78.74%
Elapsed time = 50.62 sec. (69692.83 ticks, tree = 1.74 MB, solutions = 8)
    640   107      283.9304   474      162.0000      289.5647   187018   78.74%
    646   113      282.4027   448      162.0000      289.5647   190484   78.74%
    656   123      281.5956   440      162.0000      289.5647   193213   78.74%
    666   133      280.9241   416      162.0000      289.5647   197935   78.74%
    681   148      280.3975   385      162.0000      289.5647   202396   78.74%
    693   160      273.7523   344      162.0000      289.5647   207725   78.74%
    703   170      266.9625   334      162.0000      289.5647   213690   78.74%
    718   185      272.8759   326      162.0000      289.5647   219857   78.74%
    726   193      271.3882   331      162.0000      289.5647   225459   78.74%
    735   202      274.6436   319      162.0000      289.5647   229851   78.74%
Elapsed time = 58.23 sec. (81384.56 ticks, tree = 3.87 MB, solutions = 8)
    742   209      272.8397   334      162.0000      289.5647   234873   78.74%
    746   213      271.5169   325      162.0000      289.5647   237168   78.74%
    761   226      267.3943   311      162.0000      289.5647   241683   78.74%
    780   239        cutoff            162.0000      289.5647   249583   78.74%
    782   239      286.7415   481      162.0000      289.5532   251143   78.74%
    790   247      281.5770   426      162.0000      289.5532   253731   78.74%
    802   258      275.5909   390      162.0000      289.5532   257357   78.74%
    822   278      260.7051   355      162.0000      289.5532   262542   78.74%
    835   289      250.8303   336      162.0000      289.5532   267000   78.74%
    841   291      284.1275   476      162.0000      289.5163   271735   78.71%
Elapsed time = 66.31 sec. (93033.97 ticks, tree = 4.81 MB, solutions = 8)
    846   296      275.5056   404      162.0000      289.5163   276747   78.71%
    858   308      272.9242   385      162.0000      289.5163   279775   78.71%
    870   320      271.2645   356      162.0000      289.5163   281446   78.71%
    884   330      284.9723   481      162.0000      289.4909   287735   78.70%
    890   336      274.8397   404      162.0000      289.4909   291352   78.70%
    906   352      271.0039   387      162.0000      289.4909   296554   78.70%
    924   370      266.7316   354      162.0000      289.4909   301334   78.70%
    944   390      259.1086   324      162.0000      289.4909   303783   78.70%
    967   408      284.4997   494      162.0000      289.4707   309411   78.69%
    973   414      275.2979   434      162.0000      289.4707   313785   78.69%
Elapsed time = 74.87 sec. (105312.50 ticks, tree = 7.66 MB, solutions = 8)
    983   424      271.4052   386      162.0000      289.4707   318491   78.69%
    992   433      266.1893   364      162.0000      289.4707   322642   78.69%
   1004   445      268.2640   380      162.0000      289.4707   327288   78.69%
   1018   459      267.4632   358      162.0000      289.4707   331804   78.69%
   1039   480      264.1662   323      162.0000      289.4707   335319   78.69%
   1046   486      246.9691   297      162.0000      289.4707   341042   78.69%
   1049   487      282.5805   484      162.0000      289.4549   343798   78.68%
   1058   496      276.7952   418      162.0000      289.4549   347453   78.68%
   1072   510      273.3218   395      162.0000      289.4549   351043   78.68%
   1095   533      266.6416   364      162.0000      289.4549   355001   78.68%
Elapsed time = 82.33 sec. (116027.51 ticks, tree = 9.49 MB, solutions = 8)
   1118   554      262.9128   324      162.0000      289.4549   360934   78.68%
   1126   560      249.9974   284      162.0000      289.4549   364428   78.68%
   1135   565        cutoff            162.0000      289.4549   371919   78.68%
   1137   565      286.1413   495      162.0000      289.0061   373643   78.40%
   1149   577      283.0368   446      162.0000      289.0061   377003   78.40%
   1163   591      280.3664   399      162.0000      289.0061   380558   78.40%
   1171   599      278.7889   391      162.0000      289.0061   382213   78.40%
   1187   615      275.8478   378      162.0000      289.0061   386337   78.40%
   1207   635      271.5441   334      162.0000      289.0061   389657   78.40%
   1216   642      255.3759   260      162.0000      289.0061   394691   78.40%
Elapsed time = 89.75 sec. (126647.81 ticks, tree = 11.38 MB, solutions = 8)
   1220   643      285.8471   453      162.0000      289.0050   398549   78.40%
   1228   651      281.5282   439      162.0000      289.0050   402772   78.40%
   1239   662      278.5590   389      162.0000      289.0050   406415   78.40%
   1259   682      273.4461   381      162.0000      289.0050   409725   78.40%
   1286   709      267.2701   335      162.0000      289.0050   413198   78.40%
   1295   714      282.3130   456      162.0000      288.5938   418203   78.14%
   1306   725      277.0389   403      162.0000      288.5938   422217   78.14%
   1321   740      263.0848   345      162.0000      288.5938   426527   78.14%
   1334   753      258.7475   326      162.0000      288.5938   429450   78.14%
   1364   778      281.6951   449      162.0000      288.1259   444870   77.86%
Elapsed time = 99.02 sec. (139870.80 ticks, tree = 11.75 MB, solutions = 8)
   1405   819      251.8850   312      162.0000      288.1259   464034   77.86%
   1461   869      242.6354   295      162.0000      288.0758   482790   77.82%
   1490   892      285.8351   444      162.0000      288.0684   502094   77.82%
*  1526+  925                          170.0000      288.0684            69.45%
   1531   930      247.0942   276      170.0000      288.0684   518847   69.45%
   1564   955      272.9357   410      170.0000      287.9369   531434   69.37%
   1638  1021      280.1026   452      170.0000      287.8105   549436   69.30%
   1684  1065      251.9746   314      170.0000      287.8105   566873   69.30%
   1711  1088      260.8876   349      170.0000      287.7957   581739   69.29%
   1782  1149      283.1280   469      170.0000      287.3964   599614   69.06%
   1827  1192      214.4143   233      170.0000      287.3964   620336   69.06%
Elapsed time = 126.75 sec. (179616.49 ticks, tree = 18.12 MB, solutions = 9)
   1879  1238      272.3372   397      170.0000      287.3947   634447   69.06%
   1924  1277        cutoff            170.0000      287.3947   655345   69.06%
   1968  1321      253.4430   295      170.0000      287.3410   672442   69.02%
Starting limited solution polishing.
   2120  1454      269.6029   395      170.0000      287.3368   690023   69.02%
   2157  1487      283.1685   411      170.0000      287.2413   706419   68.97%
   2212  1540      264.6257   291      170.0000      287.2413   726322   68.97%
*  2226+ 1526                          176.0000      287.2413            63.21%
*  2226+ 1516                          182.0000      287.2413            57.82%
*  2226+ 1510                          184.0000      287.2413            56.11%
   2264  1540      280.2962   477      184.0000      287.2401   743971   56.11%
   2309  1581        cutoff            184.0000      287.2401   760822   56.11%

GUB cover cuts applied:  146
Clique cuts applied:  93
Cover cuts applied:  41
Implied bound cuts applied:  104
Flow cuts applied:  24
Mixed integer rounding cuts applied:  193
Zero-half cuts applied:  108
Lift and project cuts applied:  28
Gomory fractional cuts applied:  6

Root node processing (before b&c):
  Real time             =    4.97 sec. (6194.41 ticks)
Sequential b&c:
  Real time             =  145.03 sec. (205462.09 ticks)
                          ------------
Total (root+branch&cut) =  150.00 sec. (211656.50 ticks)

Solution pool: 13 solutions saved.

MIP - Time limit exceeded, integer feasible:  Objective =  1.8400000000e+02
Current MIP best bound =  2.8723755187e+02 (gap = 103.238, 56.11%)
Solution time =  150.00 sec.  Iterations = 763581  Nodes = 2326 (1593)
Deterministic time = 211656.51 ticks  (1411.04 ticks/sec)


Incumbent solution
Variable Name           Solution Value
F                           184.000000
y9                            1.000000
y11                           1.000000
y14                           1.000000
y29                           1.000000
y30                           1.000000
y41                           1.000000
y57                           1.000000
y76                           1.000000
y94                           1.000000
y101                          1.000000
y102                          1.000000
y105                          1.000000
y111                          1.000000
y127                          1.000000
y135                          1.000000
y136                          1.000000
y142                          1.000000
y145                          1.000000
y149                          1.000000
y151                          1.000000
y181                          1.000000
y184                          1.000000
y199                          1.000000
y206                          1.000000
y223                          1.000000
y247                          1.000000
y254                          1.000000
y287                          1.000000
y295                          1.000000
x14x9x1                       1.000000
x40x76x1                      1.000000
x117x287x1                    1.000000
x183x149x1                    2.000000
x208x14x1                     1.000000
x214x102x1                    2.000000
x264x136x1                    1.000000
x14x30x2                      1.000000
x26x14x2                      1.000000
x40x111x2                     1.000000
x48x57x2                      1.000000
x48x254x2                     1.000000
x117x287x2                    1.000000
x139x57x2                     1.000000
x208x41x2                     1.000000
x264x94x2                     1.000000
x61x41x3                      1.000000
x61x111x3                     1.000000
x78x223x3                     2.000000
x81x76x3                      1.000000
x81x254x3                     1.000000
x139x136x3                    1.000000
x9x135x1                      1.000000
x9x181x1                      1.000000
x101x11x2                     1.000000
x287x11x2                     1.000000
x11x0x2                       2.000000
x102x29x1                     2.000000
x29x0x1                       2.000000
x30x206x2                     2.000000
x41x101x2                     1.000000
x41x142x3                     1.000000
x57x184x2                     1.000000
x57x247x2                     1.000000
x76x101x1                     1.000000
x76x127x3                     1.000000
x94x135x2                     1.000000
x111x94x3                     1.000000
x94x142x3                     1.000000
x101x151x1                    1.000000
x111x105x2                    1.000000
x105x145x2                    1.000000
x223x105x3                    1.000000
x105x151x3                    1.000000
x254x127x2                    1.000000
x127x0x2                      1.000000
x127x0x3                      1.000000
x135x0x1                      1.000000
x135x0x2                      1.000000
x136x247x1                    1.000000
x136x295x3                    1.000000
x142x0x3                      2.000000
x287x145x1                    1.000000
x145x0x1                      1.000000
x145x0x2                      1.000000
x149x199x1                    2.000000
x151x0x1                      1.000000
x151x0x3                      1.000000
x181x0x1                      1.000000
x184x181x2                    1.000000
x181x0x2                      1.000000
x223x184x3                    1.000000
x184x0x3                      1.000000
x199x0x1                      2.000000
x206x0x2                      2.000000
x247x0x1                      1.000000
x247x0x2                      1.000000
x254x295x3                    1.000000
x295x0x3                      2.000000
s14                           6.129122
s9                            7.526540
z14z9z1                       1.000000
s11                           9.330000
z14z11z2                      1.000000
s16                           9.200000
s20                           6.700000
s29                           8.754543
s30                           7.817387
z14z30z2                      1.000000
s33                           9.000000
s57                           6.800522
s63                           9.240000
z14z63z1                      1.000000
s71                           7.730000
s76                           6.570554
s77                           7.620000
s79                           8.980000
s94                           7.587759
s95                           7.720000
s101                          7.749439
s102                          7.630000
s105                          8.074372
s107                          7.840000
s111                          6.285104
s127                          8.391417
s132                          7.880000
s135                          9.160000
s136                          6.760522
s138                          7.460000
s145                          9.460000
s149                          7.195854
s151                          9.220000
s159                          6.880000
s163                          8.700000
s175                          6.540000
s181                          9.470000
s184                          8.254051
s197                          9.200000
s198                          7.810000
s199                          8.560819
s206                          8.900000
s230                          9.200000
s233                          8.149871
s236                          9.120000
s241                          7.050000
s247                          9.150000
s254                          6.871032
s258                          7.660000
s260                          8.580000
s267                          7.880000
s268                          6.500000
s270                          6.800000
s275                          6.000000
s287                          7.740000
s291                          9.230000
s296                          6.370000
s26                           4.711183
z26z11z2                      1.000000
z26z14z2                      1.000000
z26z30z2                      1.000000
s41                           6.271429
s44                           6.108501
z26z95z2                      1.000000
s172                          6.000000
z26z206z2                     1.000000
s228                          6.000000
z26z233z2                     1.000000
s249                          6.360640
z26z258z2                     1.000000
z26z268z2                     1.000000
s277                          6.000000
z26z296z2                     1.000000
s40                           5.020208
z40z9z1                       1.000000
z40z11z2                      1.000000
z40z20z1                      1.000000
z40z29z1                      1.000000
z40z30z2                      1.000000
z40z33z1                      1.000000
z40z63z1                      1.000000
z40z76z1                      1.000000
z40z79z1                      1.000000
z40z95z2                      1.000000
z40z102z1                     1.000000
z40z111z2                     1.000000
z40z149z1                     1.000000
s161                          6.000000
z40z199z1                     1.000000
z40z206z2                     1.000000
s217                          6.000000
z40z233z2                     1.000000
z40z258z2                     1.000000
z40z267z1                     1.000000
z40z268z2                     1.000000
z40z270z1                     1.000000
s48                           5.061970
z48z11z2                      1.000000
z48z30z2                      1.000000
z48z57z2                      1.000000
z48z95z2                      1.000000
z48z206z2                     1.000000
z48z233z2                     1.000000
z48z254z2                     1.000000
z48z258z2                     1.000000
s61                           5.027381
s13                           6.241568
s15                           8.790000
z61z15z3                      1.000000
s21                           6.000000
s25                           8.096597
z61z25z3                      1.000000
s27                           6.000000
z61z41z3                      1.000000
s62                           9.000000
z61z62z3                      1.000000
s68                           7.700000
z61z68z3                      1.000000
s73                           8.900000
z61z73z3                      1.000000
s88                           7.650000
z61z88z3                      1.000000
z61z111z3                     1.000000
s142                          9.110000
z61z142z3                     1.000000
s178                          8.480000
z61z178z3                     1.000000
s196                          7.770000
z61z196z3                     1.000000
s215                          6.000000
s222                          8.610000
z61z222z3                     1.000000
s223                          6.356567
s280                          6.000000
s295                          8.339410
z61z295z3                     1.000000
s78                           5.085161
z78z15z3                      1.000000
z78z25z3                      1.000000
z78z62z3                      1.000000
z78z68z3                      1.000000
z78z73z3                      1.000000
z78z88z3                      1.000000
z78z142z3                     1.000000
z78z178z3                     1.000000
z78z196z3                     1.000000
z78z222z3                     1.000000
z78z223z3                     1.000000
z78z295z3                     1.000000
s81                           5.348275
z81z15z3                      1.000000
z81z25z3                      1.000000
z81z62z3                      1.000000
z81z68z3                      1.000000
z81z73z3                      1.000000
z81z76z3                      1.000000
z81z88z3                      1.000000
z81z142z3                     1.000000
z81z178z3                     1.000000
z81z196z3                     1.000000
z81z222z3                     1.000000
z81z254z3                     1.000000
z81z295z3                     1.000000
s117                          5.965304
z117z11z2                     1.000000
z117z29z1                     1.000000
z117z33z1                     1.000000
z117z63z1                     1.000000
z117z79z1                     1.000000
z117z95z2                     1.000000
z117z199z1                    1.000000
z117z206z2                    1.000000
z117z258z2                    1.000000
z117z267z1                    1.000000
z117z287z1                    1.000000
z117z287z2                    1.000000
s139                          5.660261
z139z11z2                     1.000000
z139z15z3                     1.000000
z139z25z3                     1.000000
z139z30z2                     1.000000
z139z57z2                     1.000000
z139z62z3                     1.000000
z139z68z3                     1.000000
z139z73z3                     1.000000
z139z88z3                     1.000000
z139z95z2                     1.000000
z139z136z3                    1.000000
z139z142z3                    1.000000
z139z178z3                    1.000000
z139z196z3                    1.000000
z139z206z2                    1.000000
z139z222z3                    1.000000
z139z233z2                    1.000000
z139z258z2                    1.000000
z139z295z3                    1.000000
s183                          5.853943
z183z29z1                     1.000000
z183z33z1                     1.000000
z183z63z1                     1.000000
z183z79z1                     1.000000
z183z102z1                    1.000000
z183z149z1                    1.000000
z183z199z1                    1.000000
z183z267z1                    1.000000
s208                          4.880868
z208z9z1                      1.000000
z208z11z2                     1.000000
z208z14z1                     1.000000
z208z20z1                     1.000000
z208z29z1                     1.000000
z208z30z2                     1.000000
z208z33z1                     1.000000
z208z41z2                     1.000000
z208z63z1                     1.000000
z208z79z1                     1.000000
z208z95z2                     1.000000
z208z102z1                    1.000000
s143                          6.000000
z208z149z1                    1.000000
z208z199z1                    1.000000
z208z206z2                    1.000000
z208z233z2                    1.000000
z208z258z2                    1.000000
z208z267z1                    1.000000
z208z268z2                    1.000000
z208z270z1                    1.000000
z208z296z2                    1.000000
s214                          5.862557
z214z29z1                     1.000000
z214z33z1                     1.000000
z214z63z1                     1.000000
z214z79z1                     1.000000
z214z102z1                    1.000000
z214z199z1                    1.000000
z214z267z1                    1.000000
z215z15z3                     1.000000
s264                          5.500000
z264z9z1                      1.000000
z264z11z2                     1.000000
z264z20z1                     1.000000
z264z29z1                     1.000000
z264z30z2                     1.000000
z264z33z1                     1.000000
z264z63z1                     1.000000
z264z79z1                     1.000000
z264z94z2                     1.000000
z264z95z2                     1.000000
z264z102z1                    1.000000
z264z136z1                    1.000000
z264z149z1                    1.000000
z264z199z1                    1.000000
z264z206z2                    1.000000
z264z233z2                    1.000000
z264z258z2                    1.000000
z264z267z1                    1.000000
z9z135z1                      1.000000
z9z181z1                      1.000000
z13z15z3                      1.000000
z13z142z3                     1.000000
z21z15z3                      1.000000
z21z142z3                     1.000000
z27z15z3                      1.000000
z30z206z2                     1.000000
z41z11z2                      1.000000
z41z15z3                      1.000000
z41z101z2                     1.000000
z41z142z3                     1.000000
z44z11z2                      1.000000
z44z33z1                      1.000000
z44z63z1                      1.000000
z57z11z2                      1.000000
z57z184z2                     1.000000
z57z233z2                     1.000000
z57z247z2                     1.000000
z76z15z3                      1.000000
z76z63z1                      1.000000
z76z101z1                     1.000000
z76z127z3                     1.000000
z94z135z2                     1.000000
z94z142z3                     1.000000
z101z11z2                     1.000000
z101z63z1                     1.000000
z101z151z1                    1.000000
z102z29z1                     1.000000
z105z145z2                    1.000000
z105z151z3                    1.000000
z111z15z3                     1.000000
z111z94z3                     1.000000
z111z105z2                    1.000000
z136z15z3                     1.000000
z136z63z1                     1.000000
z136z247z1                    1.000000
z136z295z3                    1.000000
z143z33z1                     1.000000
z143z63z1                     1.000000
z149z29z1                     1.000000
z149z199z1                    1.000000
z161z33z1                     1.000000
z161z63z1                     1.000000
z172z11z2                     1.000000
z172z15z3                     1.000000
z175z15z3                     1.000000
z175z63z1                     1.000000
z184z181z2                    1.000000
z217z33z1                     1.000000
z217z63z1                     1.000000
z223z15z3                     1.000000
z223z25z3                     1.000000
z223z105z3                    1.000000
z223z184z3                    1.000000
z228z11z2                     1.000000
z228z258z2                    1.000000
z233z11z2                     1.000000
z249z11z2                     1.000000
z249z15z3                     1.000000
z254z15z3                     1.000000
z254z127z2                    1.000000
z254z295z3                    1.000000
z258z11z2                     1.000000
z275z11z2                     1.000000
z275z15z3                     1.000000
z277z11z2                     1.000000
z277z63z1                     1.000000
z280z15z3                     1.000000
z287z11z2                     1.000000
z287z63z1                     1.000000
z287z145z1                    1.000000
All other variables in the range 1-5222 are 0.
